p cnf 12 22
-4 -5 -8  0
-4 -6 8  0
4 -7 -8  0
12  0
-3 -5 -7  0
-3 -6 7  0
3 -7  0
3 7 -8  0
11  0
2 7 8  0
6 8  0
5 -6 7  0
2 -6 7  0
-2 6  0
-2 5 -6  0
10  0
1 7 8  0
5 6 8  0
1 5 8  0
1 -5 7  0
-1 5 6  0
9  0
